c 
p cnf 105 172
5 8 11 0
-4 8 21 0
-21 -3 -11 0
-7 3 22 0
-22 -10 23 0
-23 -11 5 0
-9 -2 24 0
-24 20 25 0
-25 -10 -11 0
-3 -13 26 0
-26 -12 27 0
-27 17 6 0
-18 -6 28 0
-28 -9 29 0
-29 -2 -3 0
-10 30 31 0
-10 30 -31 0
-10 -30 31 0
-10 -30 -31 0
8 -5 -10 0
8 6 32 0
-32 9 -5 0
5 18 33 0
5 18 -33 0
-8 -15 34 0
-8 -15 -34 0
-8 3 35 0
-35 20 36 0
-36 -11 -19 0
7 13 -8 0
14 -12 37 0
14 -12 -37 0
-4 18 -13 0
5 -18 38 0
-38 2 39 0
-39 -9 7 0
-16 -10 40 0
-40 -15 -17 0
4 -20 41 0
4 -20 -41 0
17 -2 42 0
-42 -16 10 0
-10 2 43 0
-43 19 4 0
2 10 -19 0
4 16 44 0
4 16 -44 0
-8 -18 45 0
-45 -17 46 0
-46 7 -12 0
2 15 16 0
15 11 4 0
13 47 48 0
13 47 -48 0
13 -47 48 0
13 -47 -48 0
20 16 49 0
-49 14 -4 0
9 1 -10 0
-19 7 50 0
-50 6 10 0
5 -12 51 0
-51 -16 -20 0
-1 -4 52 0
-52 18 53 0
-53 8 2 0
-11 -19 54 0
-54 12 55 0
-55 7 10 0
-6 15 56 0
-56 12 57 0
-57 -13 8 0
18 7 -11 0
4 18 58 0
-58 -11 -13 0
10 -1 2 0
-13 -18 59 0
-59 5 -10 0
12 9 60 0
-60 16 -5 0
11 -3 -2 0
18 -15 61 0
-61 17 62 0
-62 -2 -6 0
10 7 -18 0
3 63 64 0
3 63 -64 0
3 -63 64 0
3 -63 -64 0
3 -7 65 0
-65 -20 66 0
-66 -14 -17 0
-3 8 67 0
-67 17 6 0
1 68 69 0
1 68 -69 0
1 -68 69 0
1 -68 -69 0
14 12 -19 0
14 3 70 0
-70 10 71 0
-71 20 -1 0
-15 -12 72 0
-15 -12 -72 0
-8 -17 73 0
-8 -17 -73 0
11 74 75 0
11 74 -75 0
11 -74 75 0
11 -74 -75 0
-14 76 77 0
-14 76 -77 0
-14 -76 77 0
-14 -76 -77 0
-14 -18 -6 0
-20 -9 78 0
-78 -12 79 0
-79 10 4 0
6 8 80 0
6 8 -80 0
-11 -2 15 0
-1 12 81 0
-81 4 82 0
-82 20 11 0
9 -8 -10 0
-3 -19 83 0
-3 -19 -83 0
-4 84 85 0
-4 84 -85 0
-4 -84 85 0
-4 -84 -85 0
17 4 14 0
7 -20 86 0
7 -20 -86 0
11 5 -12 0
13 20 16 0
14 17 87 0
-87 -12 -1 0
19 -20 88 0
-88 8 89 0
-89 -9 -5 0
9 12 18 0
-2 -13 90 0
-2 -13 -90 0
14 -8 91 0
-91 -4 16 0
17 -7 -12 0
15 -19 92 0
15 -19 -92 0
3 19 93 0
3 19 -93 0
-5 -7 94 0
-94 -11 9 0
4 -2 95 0
-95 9 96 0
-96 -11 -17 0
-4 17 97 0
-97 -11 98 0
-98 -14 -5 0
20 17 99 0
-99 12 4 0
-12 2 100 0
-100 -4 101 0
-101 -15 -1 0
-10 13 102 0
-102 1 20 0
-7 -20 103 0
-103 -8 -11 0
9 -18 104 0
-104 -10 -15 0
-11 3 105 0
-105 7 8 0
